This is Ipopt version 3.12.13, running with linear solver ma57.

Number of nonzeros in equality constraint Jacobian...:        0
Number of nonzeros in inequality constraint Jacobian.:     9144
Number of nonzeros in Lagrangian Hessian.............:       21

Total number of variables............................:        6
                     variables with only lower bounds:        0
                variables with lower and upper bounds:        6
                     variables with only upper bounds:        0
Total number of equality constraints.................:        0
Total number of inequality constraints...............:     1524
        inequality constraints with only lower bounds:        0
   inequality constraints with lower and upper bounds:        0
        inequality constraints with only upper bounds:     1524

iter    objective    inf_pr   inf_du lg(mu)  ||d||  lg(rg) alpha_du alpha_pr  ls
   0  9.0015470e-02 0.00e+00 4.26e-01   0.0 0.00e+00    -  0.00e+00 0.00e+00   0
   1  7.0722776e-02 0.00e+00 2.22e-01  -1.2 3.79e-02    -  9.90e-01 1.00e+00f  1
   2  1.7645089e-02 0.00e+00 1.95e-01  -2.1 1.47e-01    -  9.91e-01 1.00e+00h  1
   3  2.7109425e-03 0.00e+00 3.30e-02  -3.6 1.01e-01    -  9.86e-01 1.00e+00h  1
   4  3.5731461e-05 0.00e+00 1.26e-03  -4.7 5.39e-02    -  9.96e-01 1.00e+00h  1
   5  3.5458425e-08 0.00e+00 1.11e-05  -6.3 2.26e-02    -  9.99e-01 1.00e+00h  1

Number of Iterations....: 5

                                   (scaled)                 (unscaled)
Objective...............:   3.5458424932664400e-08    3.5458424932664400e-08
Dual infeasibility......:   1.1105956467836705e-05    1.1105956467836705e-05
Constraint violation....:   0.0000000000000000e+00    0.0000000000000000e+00
Complementarity.........:   3.6579182837188122e-05    3.6579182837188122e-05
Overall NLP error.......:   3.6579182837188122e-05    3.6579182837188122e-05


Number of objective function evaluations             = 6
Number of objective gradient evaluations             = 6
Number of equality constraint evaluations            = 0
Number of inequality constraint evaluations          = 6
Number of equality constraint Jacobian evaluations   = 0
Number of inequality constraint Jacobian evaluations = 6
Number of Lagrangian Hessian evaluations             = 5
Total CPU secs in IPOPT (w/o function evaluations)   =      0.023
Total CPU secs in NLP function evaluations           =      0.080

EXIT: Optimal Solution Found.
